DIMACS_lns/graph-1000-180.col
p edge 1000 1827
e 1 118
e 1 867
e 1 833
e 1 133
e 1 529
e 2 877
e 2 334
e 2 246
e 2 868
e 2 296
e 2 977
e 2 264
e 3 80
e 3 933
e 3 669
e 3 930
e 4 341
e 4 264
e 4 519
e 4 144
e 4 461
e 5 172
e 5 70
e 5 598
e 6 87
e 6 767
e 6 55
e 6 318
e 6 80
e 7 464
e 7 596
e 7 186
e 7 27
e 7 833
e 8 681
e 8 786
e 8 788
e 8 841
e 8 475
e 8 571
e 8 47
e 8 491
e 9 63
e 9 385
e 9 372
e 9 289
e 9 495
e 10 111
e 10 83
e 10 971
e 10 778
e 12 621
e 12 165
e 12 994
e 13 351
e 13 912
e 13 84
e 14 437
e 14 190
e 14 850
e 14 44
e 16 596
e 16 795
e 16 156
e 16 247
e 17 989
e 17 322
e 17 933
e 17 629
e 17 972
e 18 974
e 18 258
e 18 448
e 18 126
e 18 625
e 19 499
e 19 794
e 19 905
e 19 662
e 19 46
e 19 770
e 20 428
e 20 562
e 20 520
e 22 683
e 22 134
e 22 43
e 22 803
e 23 456
e 23 763
e 23 988
e 25 38
e 25 984
e 25 504
e 25 86
e 25 27
e 25 88
e 25 361
e 25 520
e 26 462
e 26 124
e 26 858
e 26 827
e 26 775
e 26 282
e 26 962
e 27 532
e 27 694
e 28 893
e 28 823
e 28 778
e 28 457
e 28 988
e 32 790
e 32 394
e 32 960
e 32 378
e 32 874
e 32 338
e 32 257
e 33 54
e 33 862
e 33 781
e 33 929
e 33 168
e 33 347
e 33 150
e 34 704
e 34 303
e 34 389
e 36 704
e 36 551
e 36 159
e 37 988
e 37 398
e 37 610
e 37 898
e 38 729
e 38 653
e 38 430
e 38 332
e 39 761
e 39 644
e 39 750
e 39 437
e 39 128
e 40 328
e 40 108
e 40 148
e 40 673
e 40 836
e 40 230
e 40 764
e 43 934
e 43 422
e 43 634
e 43 870
e 44 582
e 44 697
e 44 163
e 45 957
e 45 123
e 45 859
e 45 640
e 46 762
e 46 757
e 47 51
e 47 68
e 47 306
e 47 197
e 47 730
e 47 422
e 47 403
e 47 483
e 49 609
e 49 532
e 49 196
e 50 970
e 50 434
e 50 791
e 50 305
e 51 418
e 51 448
e 51 952
e 51 511
e 51 88
e 51 346
e 52 852
e 52 177
e 52 483
e 53 886
e 53 729
e 53 54
e 53 826
e 53 737
e 53 173
e 54 504
e 55 410
e 55 760
e 56 982
e 56 89
e 56 157
e 56 813
e 57 300
e 57 907
e 57 243
e 57 70
e 57 628
e 57 319
e 60 432
e 60 650
e 60 549
e 60 613
e 60 345
e 60 90
e 60 741
e 61 474
e 61 661
e 61 951
e 61 869
e 61 408
e 62 721
e 62 797
e 62 627
e 63 427
e 63 629
e 63 127
e 64 326
e 64 919
e 64 461
e 66 170
e 66 623
e 66 526
e 67 349
e 67 649
e 67 393
e 67 93
e 67 233
e 67 289
e 68 607
e 68 191
e 68 86
e 68 832
e 70 937
e 70 939
e 70 258
e 70 917
e 70 815
e 71 522
e 71 813
e 71 469
e 72 893
e 72 234
e 72 953
e 72 552
e 72 250
e 72 819
e 74 300
e 74 981
e 74 749
e 75 79
e 75 482
e 75 111
e 75 887
e 75 907
e 75 612
e 76 160
e 76 125
e 76 257
e 76 726
e 76 357
e 76 675
e 76 669
e 77 392
e 77 634
e 77 546
e 78 599
e 78 285
e 78 396
e 78 142
e 78 313
e 79 467
e 79 639
e 79 870
e 80 980
e 80 174
e 80 398
e 80 421
e 80 343
e 80 382
e 80 791
e 82 816
e 82 805
e 82 960
e 82 607
e 83 255
e 83 455
e 84 456
e 84 175
e 86 461
e 86 190
e 86 871
e 86 768
e 86 791
e 87 938
e 87 936
e 87 141
e 87 769
e 88 311
e 88 607
e 88 362
e 88 671
e 89 428
e 89 495
e 90 323
e 90 633
e 90 798
e 90 452
e 90 878
e 90 446
e 91 373
e 91 381
e 91 702
e 91 113
e 91 337
e 92 203
e 92 725
e 92 111
e 93 772
e 93 471
e 94 163
e 94 293
e 94 998
e 94 974
e 94 738
e 95 625
e 95 346
e 95 238
e 95 910
e 95 242
e 95 719
e 95 977
e 97 945
e 97 177
e 97 290
e 97 575
e 97 355
e 97 645
e 101 956
e 101 694
e 101 214
e 101 658
e 102 555
e 102 647
e 102 957
e 102 836
e 103 629
e 103 156
e 103 767
e 103 529
e 105 395
e 105 768
e 105 747
e 105 633
e 106 596
e 106 609
e 106 532
e 106 867
e 106 319
e 106 519
e 107 379
e 107 801
e 107 809
e 107 580
e 107 778
e 108 712
e 108 813
e 110 913
e 110 351
e 110 452
e 110 366
e 111 360
e 111 499
e 112 280
e 112 365
e 112 117
e 112 317
e 112 697
e 113 553
e 113 522
e 113 984
e 113 425
e 113 309
e 113 338
e 114 951
e 114 533
e 114 681
e 114 368
e 114 650
e 115 818
e 115 831
e 115 185
e 116 316
e 116 565
e 116 825
e 117 561
e 117 277
e 117 124
e 117 762
e 117 562
e 117 747
e 118 558
e 118 861
e 120 346
e 120 690
e 120 170
e 120 311
e 121 960
e 121 907
e 121 701
e 121 994
e 121 206
e 122 394
e 122 605
e 122 248
e 123 430
e 123 857
e 124 937
e 124 222
e 124 756
e 124 640
e 124 596
e 125 912
e 125 305
e 125 311
e 126 935
e 126 415
e 126 472
e 126 561
e 127 760
e 127 667
e 127 131
e 128 873
e 128 748
e 128 165
e 131 902
e 131 611
e 131 971
e 131 379
e 131 885
e 131 154
e 133 897
e 133 637
e 133 844
e 134 316
e 134 298
e 134 179
e 134 200
e 135 349
e 135 799
e 135 520
e 135 314
e 137 873
e 137 549
e 137 496
e 139 598
e 139 362
e 139 294
e 139 551
e 140 659
e 140 812
e 140 764
e 141 714
e 141 761
e 141 442
e 141 738
e 141 929
e 141 247
e 142 813
e 142 981
e 142 851
e 142 426
e 142 778
e 143 460
e 143 254
e 143 237
e 143 903
e 144 815
e 144 180
e 144 163
e 144 495
e 144 753
e 144 351
e 145 982
e 145 167
e 145 630
e 145 190
e 148 630
e 148 424
e 150 759
e 150 322
e 150 192
e 150 412
e 150 729
e 150 694
e 150 837
e 150 871
e 150 221
e 151 211
e 151 347
e 151 960
e 151 449
e 152 864
e 152 393
e 152 862
e 153 808
e 153 758
e 153 636
e 153 930
e 153 861
e 154 993
e 154 510
e 154 448
e 154 172
e 154 665
e 156 778
e 156 409
e 157 712
e 157 366
e 157 177
e 157 594
e 158 800
e 158 427
e 158 514
e 158 915
e 158 219
e 159 183
e 159 394
e 160 362
e 160 905
e 160 378
e 163 796
e 163 237
e 165 800
e 165 356
e 165 178
e 167 220
e 167 387
e 167 446
e 168 486
e 168 886
e 168 578
e 169 870
e 169 992
e 169 816
e 169 725
e 170 884
e 170 459
e 170 842
e 170 239
e 170 411
e 170 804
e 170 604
e 170 438
e 171 961
e 171 490
e 171 537
e 171 911
e 172 340
e 172 634
e 172 367
e 172 792
e 172 858
e 173 775
e 173 496
e 173 294
e 173 598
e 174 240
e 174 778
e 174 434
e 174 209
e 175 282
e 175 696
e 175 922
e 176 665
e 176 705
e 176 853
e 176 628
e 176 936
e 177 953
e 177 725
e 178 322
e 178 977
e 179 667
e 179 296
e 179 390
e 180 995
e 180 455
e 180 198
e 182 993
e 182 302
e 182 892
e 183 201
e 183 309
e 183 609
e 185 913
e 185 686
e 185 786
e 186 581
e 186 974
e 187 697
e 187 288
e 187 368
e 189 970
e 189 424
e 189 918
e 189 836
e 190 923
e 191 428
e 191 312
e 191 200
e 191 636
e 192 406
e 192 935
e 192 504
e 192 904
e 193 372
e 193 493
e 193 318
e 193 993
e 194 851
e 194 302
e 194 655
e 194 430
e 195 216
e 195 424
e 195 309
e 196 834
e 196 938
e 196 373
e 196 348
e 196 761
e 197 611
e 197 370
e 197 238
e 197 683
e 197 695
e 197 633
e 198 904
e 198 320
e 198 724
e 198 435
e 198 997
e 199 393
e 199 366
e 199 429
e 199 886
e 200 707
e 201 302
e 201 449
e 201 596
e 201 910
e 203 538
e 203 792
e 203 267
e 203 875
e 203 422
e 205 987
e 205 475
e 205 343
e 205 247
e 206 847
e 206 291
e 206 987
e 206 592
e 209 571
e 209 952
e 211 708
e 211 389
e 211 826
e 211 755
e 211 674
e 211 415
e 211 819
e 212 840
e 212 383
e 212 795
e 213 798
e 213 825
e 213 788
e 213 275
e 213 741
e 213 761
e 213 588
e 214 641
e 214 609
e 216 748
e 216 324
e 216 667
e 216 650
e 216 577
e 216 773
e 218 908
e 218 586
e 218 997
e 219 902
e 219 324
e 219 538
e 219 718
e 220 461
e 220 434
e 220 308
e 221 547
e 221 917
e 221 797
e 222 425
e 222 262
e 222 267
e 222 441
e 222 828
e 223 530
e 223 930
e 223 292
e 224 560
e 224 734
e 224 687
e 225 362
e 225 737
e 225 429
e 225 396
e 225 457
e 226 750
e 226 695
e 226 865
e 226 802
e 227 267
e 227 384
e 227 605
e 227 436
e 227 371
e 227 656
e 227 621
e 229 815
e 229 313
e 229 389
e 229 750
e 230 782
e 230 938
e 230 586
e 232 441
e 232 877
e 232 598
e 233 754
e 233 432
e 233 719
e 234 506
e 234 590
e 237 444
e 237 959
e 237 372
e 238 344
e 238 562
e 238 471
e 239 574
e 239 970
e 240 948
e 240 300
e 240 572
e 240 758
e 240 431
e 240 745
e 241 932
e 241 616
e 241 348
e 242 865
e 242 408
e 243 588
e 243 770
e 243 265
e 244 500
e 244 409
e 244 910
e 245 645
e 245 937
e 245 247
e 245 250
e 246 248
e 246 690
e 246 467
e 246 582
e 247 930
e 248 485
e 248 954
e 248 269
e 249 314
e 249 322
e 249 984
e 250 960
e 250 303
e 250 788
e 250 437
e 250 546
e 254 805
e 254 791
e 254 922
e 254 403
e 254 572
e 255 538
e 255 891
e 257 442
e 257 409
e 258 425
e 258 433
e 258 671
e 258 321
e 259 408
e 259 345
e 259 558
e 259 455
e 259 966
e 259 292
e 260 265
e 260 372
e 260 819
e 262 519
e 262 695
e 262 503
e 263 555
e 263 779
e 263 783
e 263 919
e 264 673
e 264 745
e 264 306
e 264 328
e 265 813
e 265 938
e 265 790
e 265 562
e 265 581
e 265 721
e 265 736
e 267 513
e 267 468
e 269 692
e 269 343
e 269 762
e 270 892
e 270 799
e 270 929
e 271 350
e 271 931
e 271 316
e 271 368
e 271 520
e 272 296
e 272 375
e 272 680
e 272 962
e 273 695
e 273 944
e 273 529
e 273 422
e 273 675
e 274 679
e 274 612
e 274 932
e 275 411
e 275 545
e 276 886
e 276 976
e 276 928
e 276 648
e 277 455
e 277 681
e 279 316
e 279 441
e 279 864
e 279 505
e 279 569
e 279 340
e 280 406
e 280 616
e 280 917
e 280 879
e 282 283
e 282 526
e 282 300
e 283 393
e 283 313
e 283 538
e 283 321
e 283 632
e 285 644
e 285 956
e 285 873
e 287 754
e 287 869
e 287 858
e 287 428
e 287 572
e 287 514
e 287 517
e 288 713
e 288 767
e 288 680
e 288 668
e 289 292
e 289 648
e 290 447
e 290 834
e 290 965
e 291 683
e 291 728
e 291 409
e 292 523
e 293 460
e 293 310
e 293 992
e 294 939
e 294 864
e 294 647
e 296 597
e 296 936
e 297 700
e 297 726
e 297 649
e 297 877
e 298 828
e 298 932
e 298 734
e 298 833
e 298 578
e 300 655
e 300 582
e 302 488
e 303 800
e 304 314
e 304 772
e 304 474
e 305 695
e 305 970
e 306 398
e 306 415
e 306 770
e 306 457
e 307 997
e 307 478
e 307 515
e 307 575
e 307 827
e 308 887
e 308 867
e 308 704
e 308 830
e 308 808
e 309 400
e 310 693
e 310 761
e 310 968
e 312 342
e 312 453
e 313 490
e 313 764
e 313 398
e 313 707
e 313 797
e 314 437
e 314 790
e 314 355
e 314 858
e 314 675
e 314 778
e 317 437
e 317 904
e 318 505
e 318 893
e 318 592
e 318 551
e 319 494
e 319 411
e 319 443
e 319 921
e 319 384
e 319 994
e 320 562
e 320 750
e 321 625
e 321 944
e 321 499
e 321 641
e 322 906
e 322 887
e 322 352
e 322 930
e 322 480
e 323 962
e 323 488
e 323 486
e 323 719
e 324 545
e 324 430
e 324 583
e 324 525
e 324 519
e 324 446
e 324 785
e 326 940
e 326 888
e 326 994
e 328 902
e 328 802
e 328 532
e 329 906
e 329 521
e 329 526
e 330 956
e 330 677
e 330 773
e 332 805
e 332 367
e 332 908
e 334 992
e 334 465
e 334 346
e 337 804
e 337 802
e 337 744
e 337 861
e 338 446
e 338 875
e 338 869
e 338 800
e 339 453
e 339 977
e 339 523
e 340 345
e 340 707
e 341 879
e 341 436
e 341 750
e 341 510
e 342 404
e 342 749
e 342 874
e 343 830
e 343 701
e 343 545
e 344 997
e 344 966
e 345 581
e 346 764
e 346 884
e 346 944
e 346 491
e 346 390
e 347 673
e 348 949
e 348 714
e 349 418
e 349 464
e 349 923
e 350 511
e 350 370
e 351 920
e 351 921
e 352 993
e 352 768
e 355 643
e 356 689
e 356 526
e 356 989
e 356 732
e 356 899
e 356 737
e 356 479
e 356 672
e 357 529
e 357 442
e 357 516
e 357 419
e 359 928
e 359 796
e 359 552
e 359 522
e 360 385
e 360 469
e 360 748
e 360 945
e 361 502
e 361 611
e 362 613
e 362 422
e 362 882
e 363 488
e 363 618
e 363 494
e 363 826
e 363 456
e 365 861
e 365 442
e 366 697
e 366 892
e 367 494
e 368 455
e 368 427
e 368 491
e 368 898
e 368 697
e 370 987
e 371 566
e 371 493
e 371 940
e 371 665
e 372 875
e 372 616
e 372 900
e 372 743
e 372 825
e 372 932
e 373 430
e 373 634
e 373 504
e 375 702
e 375 900
e 375 755
e 375 496
e 378 825
e 379 506
e 379 607
e 380 656
e 380 930
e 380 659
e 381 547
e 381 513
e 381 768
e 382 851
e 382 493
e 383 888
e 383 912
e 384 730
e 384 596
e 384 404
e 384 582
e 385 403
e 387 703
e 387 680
e 389 917
e 389 641
e 389 784
e 389 614
e 389 578
e 390 837
e 392 889
e 392 629
e 392 547
e 393 649
e 393 693
e 393 928
e 394 1000
e 395 781
e 395 901
e 395 613
e 396 421
e 398 594
e 398 732
e 398 613
e 399 505
e 399 917
e 399 757
e 399 901
e 400 886
e 400 671
e 401 870
e 401 482
e 401 549
e 403 890
e 403 693
e 404 814
e 405 890
e 405 772
e 405 446
e 406 662
e 406 516
e 408 959
e 408 529
e 409 436
e 409 943
e 410 964
e 410 930
e 410 738
e 410 908
e 410 600
e 411 575
e 411 888
e 412 785
e 412 770
e 412 560
e 412 566
e 412 984
e 412 823
e 412 501
e 415 691
e 417 712
e 417 934
e 417 809
e 417 868
e 417 613
e 417 908
e 417 929
e 417 557
e 418 908
e 418 776
e 418 775
e 418 878
e 418 820
e 419 621
e 419 688
e 421 583
e 422 961
e 422 698
e 422 894
e 422 607
e 422 737
e 424 954
e 424 921
e 425 942
e 425 665
e 425 565
e 426 749
e 426 987
e 426 691
e 427 555
e 427 523
e 428 564
e 428 590
e 428 610
e 428 932
e 429 557
e 430 803
e 430 662
e 430 576
e 430 882
e 431 610
e 431 630
e 431 999
e 432 858
e 432 783
e 433 694
e 433 529
e 433 443
e 434 728
e 434 564
e 434 513
e 434 687
e 435 702
e 435 824
e 436 826
e 436 701
e 436 545
e 437 672
e 437 900
e 437 851
e 437 718
e 438 595
e 438 968
e 441 526
e 442 936
e 443 616
e 443 858
e 443 456
e 444 521
e 444 754
e 444 525
e 444 658
e 446 851
e 446 542
e 447 668
e 447 956
e 448 842
e 448 897
e 448 901
e 449 616
e 449 702
e 452 959
e 452 958
e 452 559
e 453 992
e 453 907
e 455 565
e 456 858
e 456 730
e 456 783
e 457 795
e 457 832
e 459 705
e 459 632
e 459 621
e 459 718
e 459 903
e 459 614
e 460 598
e 460 899
e 461 604
e 462 632
e 462 951
e 462 753
e 464 526
e 465 875
e 465 496
e 466 580
e 466 627
e 466 576
e 467 779
e 468 826
e 468 731
e 469 472
e 469 669
e 469 667
e 469 635
e 471 494
e 471 942
e 471 954
e 472 833
e 472 816
e 472 740
e 472 827
e 474 993
e 474 526
e 474 744
e 475 605
e 475 708
e 476 797
e 476 571
e 476 915
e 478 775
e 478 627
e 479 868
e 479 783
e 479 691
e 480 732
e 480 740
e 480 859
e 482 489
e 483 522
e 483 494
e 483 502
e 483 688
e 485 753
e 485 768
e 486 494
e 486 949
e 486 792
e 486 713
e 487 983
e 487 503
e 487 513
e 487 501
e 487 805
e 488 625
e 488 676
e 488 629
e 489 921
e 489 637
e 490 701
e 490 715
e 490 861
e 490 1000
e 490 619
e 490 598
e 490 575
e 491 559
e 493 826
e 493 791
e 493 641
e 493 969
e 494 929
e 494 730
e 494 828
e 495 698
e 495 906
e 495 902
e 496 499
e 496 645
e 496 970
e 499 689
e 499 943
e 499 709
e 499 515
e 499 529
e 500 882
e 500 652
e 500 713
e 501 819
e 502 687
e 503 841
e 503 960
e 504 726
e 504 562
e 504 972
e 505 517
e 505 816
e 506 541
e 506 824
e 506 756
e 510 635
e 511 940
e 511 898
e 513 572
e 513 551
e 514 553
e 514 890
e 514 776
e 515 709
e 515 1000
e 515 858
e 515 722
e 515 925
e 515 893
e 516 885
e 517 561
e 517 961
e 517 945
e 517 809
e 519 650
e 520 864
e 520 788
e 520 532
e 520 915
e 520 874
e 521 885
e 521 736
e 521 647
e 522 784
e 522 712
e 523 586
e 523 779
e 523 857
e 523 557
e 523 697
e 524 884
e 524 715
e 524 674
e 525 634
e 525 785
e 529 740
e 530 627
e 530 918
e 532 915
e 532 628
e 533 981
e 533 915
e 537 697
e 537 773
e 538 761
e 538 910
e 538 834
e 541 980
e 541 783
e 541 853
e 542 581
e 542 668
e 545 850
e 545 623
e 546 964
e 549 686
e 551 775
e 551 983
e 552 600
e 553 674
e 555 637
e 555 834
e 555 965
e 558 911
e 558 953
e 558 934
e 558 862
e 558 921
e 558 677
e 559 956
e 559 813
e 560 918
e 560 836
e 560 925
e 560 926
e 561 639
e 561 698
e 564 844
e 565 741
e 566 577
e 567 712
e 567 608
e 567 906
e 567 976
e 568 878
e 568 761
e 568 592
e 568 641
e 568 901
e 569 867
e 569 897
e 571 737
e 572 871
e 574 943
e 574 897
e 576 610
e 577 582
e 577 893
e 577 860
e 578 890
e 580 952
e 580 943
e 582 954
e 583 694
e 583 802
e 586 870
e 586 823
e 588 791
e 590 898
e 592 645
e 594 775
e 595 971
e 595 966
e 596 998
e 596 705
e 597 780
e 597 714
e 599 722
e 599 993
e 599 635
e 600 807
e 600 748
e 600 709
e 604 802
e 605 915
e 605 713
e 606 712
e 606 621
e 606 918
e 606 959
e 606 675
e 608 803
e 608 836
e 610 631
e 611 923
e 611 703
e 612 912
e 612 648
e 614 676
e 614 697
e 618 928
e 618 770
e 619 937
e 619 969
e 621 925
e 623 873
e 625 995
e 628 840
e 628 831
e 628 723
e 628 953
e 629 648
e 629 918
e 630 841
e 631 943
e 631 955
e 632 925
e 632 995
e 632 770
e 633 758
e 634 801
e 635 891
e 636 808
e 636 761
e 637 772
e 637 769
e 637 745
e 637 671
e 639 938
e 639 819
e 639 741
e 640 757
e 640 971
e 643 709
e 643 853
e 644 781
e 644 905
e 645 712
e 645 988
e 645 667
e 647 971
e 647 688
e 648 738
e 650 999
e 652 667
e 652 697
e 653 862
e 653 791
e 653 974
e 654 936
e 654 952
e 654 865
e 655 869
e 655 892
e 656 708
e 658 696
e 659 772
e 659 871
e 661 832
e 661 937
e 662 869
e 665 676
e 667 999
e 668 732
e 668 953
e 669 824
e 669 954
e 669 882
e 671 944
e 672 938
e 672 743
e 672 861
e 676 688
e 677 799
e 679 949
e 679 972
e 679 998
e 681 815
e 686 768
e 687 759
e 687 824
e 687 936
e 688 689
e 689 918
e 689 915
e 689 827
e 690 702
e 690 797
e 691 760
e 691 859
e 691 897
e 692 893
e 692 809
e 692 812
e 693 869
e 693 920
e 694 696
e 696 844
e 697 962
e 697 857
e 697 976
e 698 944
e 698 894
e 700 798
e 700 840
e 701 958
e 701 902
e 701 955
e 703 974
e 704 933
e 704 925
e 707 903
e 707 928
e 708 764
e 708 805
e 709 961
e 709 762
e 712 899
e 712 920
e 712 788
e 713 867
e 713 943
e 714 935
e 715 833
e 718 864
e 718 917
e 719 903
e 719 995
e 721 977
e 721 734
e 722 948
e 723 875
e 723 737
e 724 834
e 724 768
e 726 791
e 726 767
e 728 868
e 728 894
e 728 899
e 728 775
e 729 911
e 730 832
e 730 965
e 731 801
e 731 899
e 731 860
e 732 952
e 732 796
e 734 756
e 734 754
e 736 958
e 737 786
e 738 794
e 738 884
e 740 989
e 740 862
e 740 879
e 740 976
e 741 884
e 743 760
e 744 962
e 744 972
e 744 949
e 747 879
e 747 805
e 748 889
e 748 825
e 749 891
e 750 794
e 750 812
e 753 902
e 754 778
e 755 778
e 756 871
e 757 874
e 758 802
e 759 864
e 759 867
e 760 796
e 762 897
e 762 830
e 763 933
e 763 815
e 763 994
e 767 857
e 768 902
e 769 983
e 769 999
e 772 977
e 772 776
e 773 780
e 773 944
e 776 782
e 776 968
e 778 795
e 780 884
e 782 960
e 784 958
e 784 942
e 785 936
e 788 897
e 788 825
e 790 929
e 795 801
e 795 818
e 796 813
e 796 982
e 796 834
e 797 934
e 798 894
e 799 820
e 804 952
e 805 919
e 805 867
e 805 935
e 807 865
e 807 964
e 807 977
e 808 873
e 809 932
e 812 867
e 813 814
e 814 836
e 816 902
e 818 919
e 818 969
e 820 966
e 823 897
e 823 889
e 824 955
e 826 912
e 827 887
e 828 860
e 831 918
e 832 960
e 833 882
e 834 928
e 837 931
e 842 934
e 842 931
e 842 956
e 842 953
e 847 972
e 847 997
e 850 859
e 852 902
e 852 922
e 858 905
e 861 960
e 871 962
e 871 902
e 873 898
e 875 994
e 884 936
e 886 897
e 887 959
e 897 902
e 897 913
e 902 930
e 903 926
e 911 917
e 911 966
e 913 935
e 917 921
e 923 931
e 925 997
e 925 970
e 926 948
e 931 955
e 939 940
e 939 982
e 943 962
e 943 976
e 943 970
e 952 987
e 957 980
